NAME: test1786
TYPE: TSP
DIMENSION: 11
EDGE_WEIGHT_TYPE: EUC_2D
NODE_COORD_SECTION
1 84.61977968117395 39.842257301658826
2 76.60001940304024 12.823439638966061
3 7.12796084689079 91.10784887469164
4 99.60313129694269 22.774106025426143
5 87.99366370881134 85.1845338244033
6 70.19008649183714 17.300250051756784
7 13.90984241618607 75.92580799308145
8 83.29895481159079 55.05297012478804
9 28.071926256109002 40.48658647416112
10 4.082813953432673 12.193259687200953
11 87.25095231413705 36.47905268209386
EOF
